p cnf 12 7
-1 3 4 6 7 8 -9 -10 -11 -12 0 
-2 8 -9 -10 -11 -12 0 
-3 1 4 6 7 9 -8 -10 -11 -12 0 
-4 1 3 6 7 10 -8 -9 -11 -12 0 
-5 11 -8 -9 -10 -12 0 
-6 1 3 4 7 12 -8 -9 -10 -11 0 
-7 1 3 4 6 11 -8 -9 -10 -12 0 
